1036
1 0 5 1005 1 988 1 989 1 990 1 991 1
2 0 5 641 1 83 1 255 1 461 1 151 1
3 0 5 53 1 872 1 364 1 129 1 773 1
4 0 5 598 1 583 1 332 1 958 1 631 1
5 0 5 634 1 500 1 909 1 218 1 799 1
6 0 5 927 1 455 1 24 1 722 1 957 1
7 0 5 211 1 127 1 897 1 176 1 919 1
8 0 5 181 1 546 1 843 1 844 1 518 1
9 0 5 27 1 119 1 582 1 77 1 946 1
10 0 5 270 1 70 1 248 1 973 1 798 1
11 0 5 807 1 847 1 792 1 560 1 236 1
12 0 5 162 1 926 1 537 1 196 1 836 1
13 0 5 907 1 318 1 51 1 645 1 139 1
14 0 5 547 1 829 1 127 1 743 1 226 1
15 0 5 609 1 860 1 589 1 910 1 977 1
16 0 5 423 1 548 1 36 1 575 1 691 1
17 0 5 669 1 901 1 567 1 425 1 299 1
18 0 5 38 1 300 1 510 1 645 1 779 1
19 0 5 1 1 989 1 990 1 991 1 992 1
20 0 5 511 1 799 1 237 1 500 1 265 1
21 0 5 952 1 786 1 350 1 186 1 564 1
22 0 5 731 1 389 1 964 1 580 1 298 1
23 0 5 482 1 207 1 378 1 760 1 772 1
24 0 5 175 1 903 1 763 1 120 1 450 1
25 0 5 496 1 377 1 668 1 814 1 652 1
26 0 5 903 1 24 1 763 1 975 1 440 1
27 0 5 946 1 458 1 9 1 328 1 754 1
28 0 5 333 1 823 1 515 1 638 1 401 1
29 0 5 384 1 274 1 607 1 198 1 596 1
30 0 5 818 1 39 1 759 1 212 1 190 1
31 0 5 342 1 305 1 639 1 543 1 657 1
32 0 5 184 1 514 1 241 1 561 1 821 1
33 0 5 191 1 729 1 595 1 605 1 321 1
34 0 5 628 1 663 1 978 1 259 1 143 1
35 0 5 362 1 862 1 430 1 404 1 292 1
36 0 5 548 1 62 1 294 1 423 1 881 1
37 0 5 213 1 599 1 948 1 889 1 756 1
38 0 5 510 1 696 1 18 1 249 1 138 1
39 0 5 30 1 212 1 190 1 165 1 755 1
40 0 5 542 1 100 1 681 1 581 1 118 1
41 0 5 788 1 177 1 873 1 732 1 618 1
42 0 5 81 1 594 1 257 1 418 1 355 1
43 0 5 562 1 193 1 794 1 123 1 335 1
44 0 5 614 1 194 1 711 1 551 1 665 1
45 0 5 185 1 837 1 456 1 348 1 442 1
46 0 5 233 1 840 1 471 1 301 1 783 1
47 0 5 802 1 366 1 497 1 211 1 619 1
48 0 5 89 1 956 1 810 1 397 1 565 1
49 0 5 50 1 972 1 411 1 167 1 121 1
50 0 5 166 1 49 1 713 1 167 1 972 1
51 0 5 318 1 907 1 13 1 645 1 369 1
52 0 5 710 1 599 1 549 1 126 1 856 1
53 0 5 364 1 3 1 129 1 546 1 872 1
54 0 5 547 1 829 1 14 1 165 1 226 1
55 0 5 238 1 438 1 741 1 180 1 296 1
56 0 5 208 1 959 1 745 1 92 1 568 1
57 0 5 722 1 979 1 960 1 714 1 433 1
58 0 5 341 1 312 1 219 1 342 1 543 1
59 0 5 873 1 569 1 732 1 41 1 705 1
60 0 5 706 1 487 1 404 1 563 1 35 1
61 0 5 383 1 673 1 633 1 558 1 925 1
62 0 5 548 1 36 1 294 1 674 1 881 1
63 0 5 538 1 478 1 724 1 294 1 228 1
64 0 5 140 1 104 1 559 1 250 1 768 1
65 0 5 467 1 852 1 486 1 111 1 691 1
66 0 5 970 1 332 1 958 1 234 1 832 1
67 0 5 163 1 753 1 396 1 492 1 701 1
68 0 5 724 1 478 1 172 1 819 1 70 1
69 0 5 726 1 183 1 85 1 119 1 260 1
70 0 5 272 1 248 1 10 1 68 1 819 1
71 0 5 254 1 473 1 747 1 452 1 898 1
72 0 5 802 1 366 1 497 1 619 1 545 1
73 0 5 888 1 522 1 224 1 815 1 394 1
74 0 5 947 1 557 1 849 1 725 1 460 1
75 0 5 863 1 419 1 855 1 317 1 782 1
76 0 5 895 1 204 1 488 1 715 1 647 1
77 0 5 471 1 840 1 582 1 9 1 264 1
78 0 5 727 1 249 1 103 1 138 1 930 1
79 0 5 136 1 764 1 353 1 286 1 133 1
80 0 5 239 1 277 1 734 1 132 1 395 1
81 0 5 42 1 594 1 418 1 257 1 879 1
82 0 5 173 1 804 1 444 1 900 1 687 1
83 0 5 461 1 641 1 206 1 2 1 255 1
84 0 5 929 1 320 1 424 1 588 1 95 1
85 0 5 971 1 69 1 582 1 429 1 726 1
86 0 5 973 1 798 1 294 1 881 1 137 1
87 0 5 653 1 108 1 132 1 618 1 871 1
88 0 5 570 1 107 1 651 1 566 1 483 1
89 0 5 48 1 397 1 156 1 565 1 956 1
90 0 5 856 1 549 1 126 1 771 1 305 1
91 0 5 918 1 296 1 441 1 193 1 924 1
92 0 5 208 1 770 1 56 1 745 1 826 1
93 0 5 241 1 902 1 32 1 159 1 703 1
94 0 5 220 1 435 1 408 1 386 1 145 1
95 0 5 588 1 320 1 761 1 114 1 84 1
96 0 5 392 1 833 1 322 1 122 1 152 1
97 0 5 195 1 830 1 269 1 271 1 969 1
98 0 5 806 1 617 1 334 1 190 1 941 1
99 0 5 437 1 292 1 297 1 261 1 862 1
100 0 5 681 1 40 1 542 1 216 1 413 1
101 0 5 436 1 540 1 593 1 223 1 235 1
102 0 5 261 1 966 1 362 1 553 1 531 1
103 0 5 78 1 234 1 930 1 727 1 288 1
104 0 5 768 1 445 1 64 1 250 1 191 1
105 0 5 449 1 791 1 803 1 896 1 563 1
106 0 5 173 1 687 1 444 1 804 1 82 1
107 0 5 737 1 88 1 965 1 566 1 570 1
108 0 5 132 1 87 1 653 1 618 1 239 1
109 0 5 450 1 120 1 295 1 903 1 175 1
110 0 5 967 1 501 1 817 1 887 1 702 1
111 0 5 486 1 592 1 372 1 421 1 691 1
112 0 5 809 1 146 1 489 1 751 1 509 1
113 0 5 861 1 312 1 219 1 266 1 311 1
114 0 5 382 1 761 1 203 1 479 1 95 1
115 0 5 796 1 508 1 325 1 179 1 613 1
116 0 5 694 1 953 1 415 1 554 1 299 1
117 0 5 258 1 489 1 494 1 604 1 865 1
118 0 5 470 1 974 1 876 1 391 1 40 1
119 0 5 754 1 726 1 69 1 183 1 9 1
120 0 5 450 1 109 1 903 1 295 1 175 1
121 0 5 336 1 411 1 972 1 171 1 652 1
122 0 5 392 1 728 1 96 1 322 1 475 1
123 0 5 976 1 858 1 794 1 335 1 43 1
124 0 5 343 1 334 1 434 1 941 1 964 1
125 0 5 937 1 504 1 631 1 414 1 607 1
126 0 5 549 1 948 1 856 1 52 1 599 1
127 0 5 885 1 743 1 951 1 7 1 176 1
128 0 5 962 1 610 1 738 1 390 1 711 1
129 0 5 546 1 53 1 3 1 950 1 364 1
130 0 5 720 1 188 1 790 1 405 1 793 1
131 0 5 284 1 157 1 750 1 940 1 644 1
132 0 5 618 1 108 1 87 1 734 1 239 1
133 0 5 801 1 136 1 79 1 286 1 353 1
134 0 5 368 1 158 1 506 1 874 1 427 1
135 0 5 507 1 539 1 559 1 690 1 904 1
136 0 5 79 1 764 1 286 1 133 1 801 1
137 0 5 881 1 294 1 36 1 548 1 86 1
138 0 5 249 1 696 1 727 1 78 1 103 1
139 0 5 427 1 800 1 696 1 913 1 339 1
140 0 5 64 1 700 1 559 1 935 1 250 1
141 0 5 536 1 143 1 875 1 978 1 34 1
142 0 5 572 1 660 1 426 1 235 1 215 1
143 0 5 875 1 536 1 141 1 978 1 231 1
144 0 5 209 1 831 1 870 1 324 1 699 1
145 0 5 435 1 94 1 397 1 386 1 220 1
146 0 5 809 1 112 1 751 1 904 1 534 1
147 0 5 243 1 580 1 402 1 731 1 192 1
148 0 5 689 1 693 1 912 1 512 1 886 1
149 0 5 291 1 369 1 645 1 409 1 225 1
150 0 5 619 1 351 1 344 1 497 1 316 1
151 0 5 641 1 83 1 2 1 255 1 461 1
152 0 5 96 1 322 1 833 1 699 1 831 1
153 0 5 741 1 858 1 296 1 55 1 238 1
154 0 5 723 1 841 1 557 1 460 1 902 1
155 0 5 501 1 357 1 702 1 110 1 728 1
156 0 5 810 1 397 1 89 1 48 1 684 1
157 0 5 750 1 131 1 940 1 284 1 407 1
158 0 5 134 1 472 1 506 1 368 1 427 1
159 0 5 824 1 241 1 93 1 450 1 903 1
160 0 5 781 1 531 1 621 1 553 1 297 1
161 0 5 289 1 345 1 439 1 354 1 967 1
162 0 5 926 1 537 1 12 1 836 1 938 1
163 0 5 67 1 492 1 753 1 701 1 602 1
164 0 5 350 1 474 1 780 1 528 1 499 1
165 0 5 576 1 884 1 212 1 818 1 399 1
166 0 5 50 1 387 1 972 1 943 1 524 1
167 0 5 713 1 50 1 709 1 943 1 200 1
168 0 5 855 1 419 1 339 1 913 1 75 1
169 0 5 784 1 839 1 745 1 313 1 208 1
170 0 5 542 1 944 1 378 1 330 1 772 1
171 0 5 652 1 121 1 198 1 25 1 411 1
172 0 5 819 1 68 1 724 1 679 1 675 1
173 0 5 82 1 804 1 687 1 444 1 106 1
174 0 5 308 1 789 1 765 1 245 1 535 1
175 0 5 24 1 120 1 295 1 903 1 450 1
176 0 5 211 1 743 1 262 1 127 1 7 1
177 0 5 649 1 587 1 788 1 41 1 442 1
178 0 5 659 1 584 1 719 1 650 1 431 1
179 0 5 400 1 613 1 115 1 796 1 636 1
180 0 5 376 1 55 1 238 1 438 1 869 1
181 0 5 8 1 523 1 209 1 546 1 518 1
182 0 5 556 1 578 1 352 1 314 1 670 1
183 0 5 726 1 69 1 119 1 276 1 754 1
184 0 5 514 1 32 1 241 1 561 1 821 1
185 0 5 837 1 45 1 456 1 348 1 587 1
186 0 5 564 1 952 1 21 1 786 1 633 1
187 0 5 974 1 550 1 852 1 470 1 273 1
188 0 5 405 1 720 1 130 1 730 1 380 1
189 0 5 856 1 293 1 52 1 549 1 31 1
190 0 5 759 1 30 1 617 1 39 1 850 1
191 0 5 33 1 108 1 395 1 277 1 87 1
192 0 5 402 1 147 1 580 1 803 1 465 1
193 0 5 794 1 43 1 918 1 91 1 924 1
194 0 5 44 1 614 1 767 1 915 1 665 1
195 0 5 97 1 830 1 269 1 247 1 240 1
196 0 5 603 1 12 1 270 1 162 1 906 1
197 0 5 917 1 602 1 979 1 163 1 347 1
198 0 5 274 1 428 1 171 1 29 1 384 1
199 0 5 762 1 205 1 534 1 716 1 459 1
200 0 5 713 1 167 1 943 1 947 1 945 1
201 0 5 921 1 271 1 797 1 356 1 315 1
202 0 5 528 1 808 1 230 1 446 1 240 1
203 0 5 382 1 114 1 761 1 866 1 479 1
204 0 5 895 1 76 1 488 1 715 1 647 1
205 0 5 199 1 762 1 459 1 815 1 534 1
206 0 5 461 1 83 1 417 1 371 1 641 1
207 0 5 760 1 566 1 23 1 482 1 651 1
208 0 5 745 1 959 1 56 1 92 1 568 1
209 0 5 144 1 831 1 523 1 870 1 699 1
210 0 5 975 1 440 1 787 1 26 1 200 1
211 0 5 961 1 262 1 485 1 47 1 285 1
212 0 5 39 1 30 1 897 1 165 1 755 1
213 0 5 37 1 599 1 756 1 889 1 948 1
214 0 5 484 1 848 1 574 1 766 1 472 1
215 0 5 379 1 532 1 426 1 338 1 572 1
216 0 5 681 1 100 1 894 1 413 1 443 1
217 0 5 636 1 711 1 222 1 610 1 232 1
218 0 5 5 1 799 1 909 1 237 1 634 1
219 0 5 312 1 58 1 657 1 861 1 253 1
220 0 5 94 1 408 1 435 1 820 1 386 1
221 0 5 960 1 805 1 955 1 979 1 644 1
222 0 5 711 1 359 1 217 1 636 1 610 1
223 0 5 593 1 666 1 864 1 436 1 351 1
224 0 5 394 1 888 1 73 1 565 1 815 1
225 0 5 409 1 149 1 273 1 291 1 779 1
226 0 5 781 1 366 1 14 1 54 1 951 1
227 0 5 705 1 466 1 828 1 811 1 732 1
228 0 5 724 1 675 1 685 1 538 1 63 1
229 0 5 882 1 319 1 309 1 894 1 667 1
230 0 5 808 1 446 1 202 1 349 1 269 1
231 0 5 608 1 429 1 259 1 536 1 143 1
232 0 5 406 1 636 1 217 1 390 1 733 1
233 0 5 301 1 783 1 597 1 46 1 840 1
234 0 5 103 1 832 1 66 1 930 1 288 1
235 0 5 436 1 316 1 660 1 593 1 150 1
236 0 5 847 1 807 1 594 1 11 1 560 1
237 0 5 799 1 20 1 265 1 511 1 500 1
238 0 5 55 1 376 1 180 1 153 1 741 1
239 0 5 80 1 277 1 132 1 395 1 734 1
240 0 5 712 1 195 1 97 1 202 1 528 1
241 0 5 32 1 184 1 561 1 514 1 93 1
242 0 5 403 1 605 1 686 1 445 1 256 1
243 0 5 147 1 580 1 192 1 731 1 124 1
244 0 5 399 1 892 1 410 1 829 1 464 1
245 0 5 481 1 710 1 789 1 765 1 293 1
246 0 5 671 1 502 1 898 1 520 1 453 1
247 0 5 969 1 838 1 269 1 195 1 349 1
248 0 5 272 1 70 1 10 1 331 1 469 1
249 0 5 138 1 727 1 78 1 696 1 103 1
250 0 5 277 1 64 1 890 1 80 1 239 1
251 0 5 571 1 282 1 708 1 479 1 913 1
252 0 5 905 1 482 1 772 1 330 1 291 1
253 0 5 752 1 312 1 295 1 219 1 58 1
254 0 5 71 1 452 1 747 1 898 1 554 1
255 0 5 641 1 83 1 2 1 461 1 151 1
256 0 5 605 1 729 1 686 1 242 1 403 1
257 0 5 355 1 906 1 42 1 418 1 603 1
258 0 5 117 1 319 1 590 1 489 1 494 1
259 0 5 663 1 971 1 231 1 85 1 143 1
260 0 5 276 1 880 1 757 1 630 1 69 1
261 0 5 102 1 966 1 35 1 292 1 362 1
262 0 5 211 1 951 1 743 1 485 1 176 1
263 0 5 608 1 859 1 846 1 494 1 590 1
264 0 5 471 1 77 1 597 1 946 1 328 1
265 0 5 388 1 845 1 237 1 792 1 20 1
266 0 5 680 1 600 1 688 1 656 1 113 1
267 0 5 662 1 520 1 676 1 826 1 415 1
268 0 5 802 1 366 1 497 1 619 1 545 1
269 0 5 969 1 830 1 349 1 247 1 97 1
270 0 5 462 1 196 1 10 1 973 1 86 1
271 0 5 201 1 315 1 830 1 921 1 797 1
272 0 5 248 1 331 1 70 1 632 1 469 1
273 0 5 409 1 448 1 974 1 470 1 187 1
274 0 5 198 1 29 1 384 1 428 1 607 1
275 0 5 820 1 417 1 321 1 595 1 371 1
276 0 5 260 1 183 1 754 1 519 1 726 1
277 0 5 250 1 239 1 80 1 395 1 132 1
278 0 5 478 1 724 1 538 1 68 1 63 1
279 0 5 290 1 363 1 948 1 753 1 549 1
280 0 5 420 1 579 1 658 1 386 1 352 1
281 0 5 802 1 497 1 619 1 366 1 545 1
282 0 5 479 1 527 1 251 1 571 1 382 1
283 0 5 585 1 306 1 376 1 738 1 238 1
284 0 5 131 1 644 1 407 1 955 1 157 1
285 0 5 366 1 802 1 743 1 211 1 951 1
286 0 5 764 1 801 1 136 1 79 1 133 1
287 0 5 500 1 533 1 715 1 488 1 895 1
288 0 5 930 1 744 1 103 1 627 1 78 1
289 0 5 161 1 345 1 439 1 354 1 967 1
290 0 5 279 1 363 1 303 1 948 1 549 1
291 0 5 149 1 252 1 409 1 369 1 273 1
292 0 5 862 1 437 1 35 1 362 1 261 1
293 0 5 481 1 677 1 710 1 189 1 245 1
294 0 5 881 1 137 1 36 1 548 1 62 1
295 0 5 120 1 175 1 450 1 109 1 24 1
296 0 5 741 1 153 1 924 1 55 1 91 1
297 0 5 966 1 781 1 362 1 102 1 563 1
298 0 5 896 1 964 1 389 1 626 1 850 1
299 0 5 425 1 694 1 17 1 669 1 567 1
300 0 5 139 1 13 1 696 1 38 1 18 1
301 0 5 783 1 233 1 597 1 46 1 846 1
302 0 5 813 1 346 1 575 1 596 1 814 1
303 0 5 697 1 290 1 620 1 37 1 213 1
304 0 5 447 1 491 1 529 1 853 1 775 1
305 0 5 31 1 639 1 342 1 543 1 503 1
306 0 5 585 1 283 1 329 1 883 1 376 1
307 0 5 76 1 949 1 895 1 204 1 488 1
308 0 5 174 1 789 1 245 1 797 1 765 1
309 0 5 882 1 413 1 229 1 443 1 319 1
310 0 5 374 1 851 1 648 1 748 1 739 1
311 0 5 886 1 688 1 936 1 680 1 148 1
312 0 5 219 1 58 1 253 1 861 1 657 1
313 0 5 910 1 589 1 609 1 784 1 839 1
314 0 5 578 1 182 1 555 1 352 1 280 1
315 0 5 271 1 830 1 477 1 201 1 797 1
316 0 5 436 1 150 1 344 1 235 1 593 1
317 0 5 863 1 412 1 419 1 75 1 168 1
318 0 5 51 1 907 1 13 1 645 1 368 1
319 0 5 229 1 258 1 309 1 882 1 413 1
320 0 5 588 1 95 1 84 1 689 1 929 1
321 0 5 595 1 371 1 417 1 275 1 820 1
322 0 5 392 1 96 1 122 1 152 1 728 1
323 0 5 377 1 668 1 25 1 652 1 601 1
324 0 5 704 1 950 1 773 1 144 1 209 1
325 0 5 115 1 508 1 796 1 613 1 773 1
326 0 5 525 1 358 1 873 1 618 1 734 1
327 0 5 356 1 535 1 921 1 201 1 797 1
328 0 5 480 1 946 1 458 1 27 1 9 1
329 0 5 883 1 306 1 878 1 624 1 585 1
330 0 5 772 1 252 1 482 1 170 1 378 1
331 0 5 469 1 632 1 272 1 248 1 70 1
332 0 5 958 1 970 1 66 1 598 1 4 1
333 0 5 28 1 823 1 515 1 782 1 561 1
334 0 5 964 1 98 1 124 1 850 1 626 1
335 0 5 562 1 624 1 976 1 123 1 43 1
336 0 5 121 1 972 1 411 1 758 1 49 1
337 0 5 719 1 584 1 678 1 468 1 574 1
338 0 5 623 1 215 1 572 1 532 1 426 1
339 0 5 913 1 168 1 419 1 317 1 855 1
340 0 5 529 1 748 1 353 1 851 1 79 1
341 0 5 58 1 513 1 543 1 342 1 347 1
342 0 5 639 1 31 1 543 1 657 1 58 1
343 0 5 941 1 434 1 124 1 795 1 98 1
344 0 5 150 1 436 1 316 1 351 1 379 1
345 0 5 289 1 161 1 117 1 439 1 501 1
346 0 5 302 1 813 1 814 1 596 1 496 1
347 0 5 513 1 543 1 602 1 197 1 639 1
348 0 5 185 1 837 1 587 1 456 1 730 1
349 0 5 269 1 446 1 969 1 230 1 247 1
350 0 5 164 1 21 1 780 1 786 1 952 1
351 0 5 436 1 593 1 150 1 864 1 223 1
352 0 5 578 1 386 1 280 1 420 1 182 1
353 0 5 79 1 340 1 136 1 748 1 133 1
354 0 5 928 1 473 1 739 1 887 1 817 1
355 0 5 257 1 906 1 628 1 42 1 603 1
356 0 5 327 1 535 1 921 1 201 1 797 1
357 0 5 702 1 728 1 155 1 110 1 669 1
358 0 5 734 1 525 1 80 1 239 1 618 1
359 0 5 222 1 711 1 217 1 636 1 610 1
360 0 5 453 1 452 1 953 1 520 1 246 1
361 0 5 497 1 211 1 954 1 619 1 451 1
362 0 5 404 1 35 1 966 1 862 1 297 1
363 0 5 279 1 290 1 753 1 822 1 303 1
364 0 5 53 1 568 1 959 1 839 1 3 1
365 0 5 877 1 381 1 432 1 541 1 778 1
366 0 5 285 1 547 1 47 1 268 1 942 1
367 0 5 956 1 810 1 48 1 888 1 394 1
368 0 5 134 1 158 1 874 1 907 1 506 1
369 0 5 645 1 51 1 291 1 149 1 318 1
370 0 5 512 1 385 1 591 1 912 1 866 1
371 0 5 417 1 321 1 83 1 206 1 461 1
372 0 5 486 1 592 1 111 1 685 1 691 1
373 0 5 533 1 715 1 530 1 647 1 488 1
374 0 5 310 1 851 1 748 1 739 1 648 1
375 0 5 211 1 451 1 954 1 857 1 485 1
376 0 5 238 1 738 1 283 1 180 1 55 1
377 0 5 25 1 668 1 323 1 496 1 652 1
378 0 5 23 1 944 1 651 1 772 1 170 1
379 0 5 532 1 215 1 344 1 316 1 436 1
380 0 5 730 1 405 1 188 1 720 1 793 1
381 0 5 778 1 365 1 877 1 457 1 541 1
382 0 5 114 1 761 1 203 1 479 1 282 1
383 0 5 61 1 673 1 558 1 633 1 925 1
384 0 5 29 1 274 1 607 1 198 1 596 1
385 0 5 774 1 490 1 431 1 899 1 650 1
386 0 5 420 1 352 1 280 1 220 1 94 1
387 0 5 166 1 943 1 50 1 433 1 714 1
388 0 5 265 1 444 1 558 1 792 1 845 1
389 0 5 22 1 580 1 298 1 731 1 964 1
390 0 5 733 1 654 1 232 1 406 1 128 1
391 0 5 876 1 616 1 118 1 581 1 894 1
392 0 5 96 1 122 1 322 1 833 1 728 1
393 0 5 620 1 697 1 541 1 349 1 247 1
394 0 5 224 1 888 1 565 1 956 1 73 1
395 0 5 239 1 80 1 108 1 277 1 132 1
396 0 5 67 1 753 1 163 1 822 1 701 1
397 0 5 89 1 156 1 48 1 145 1 810 1
398 0 5 608 1 517 1 469 1 263 1 331 1
399 0 5 244 1 884 1 892 1 576 1 165 1
400 0 5 613 1 179 1 796 1 115 1 704 1
401 0 5 638 1 28 1 812 1 823 1 333 1
402 0 5 192 1 147 1 22 1 580 1 422 1
403 0 5 686 1 242 1 605 1 670 1 459 1
404 0 5 362 1 35 1 60 1 297 1 640 1
405 0 5 188 1 730 1 720 1 130 1 380 1
406 0 5 232 1 636 1 611 1 733 1 217 1
407 0 5 917 1 284 1 197 1 701 1 67 1
408 0 5 220 1 820 1 94 1 435 1 790 1
409 0 5 273 1 225 1 291 1 149 1 448 1
410 0 5 850 1 244 1 896 1 759 1 298 1
411 0 5 758 1 709 1 121 1 552 1 336 1
412 0 5 317 1 863 1 583 1 103 1 75 1
413 0 5 443 1 681 1 882 1 100 1 216 1
414 0 5 125 1 575 1 970 1 937 1 592 1
415 0 5 953 1 698 1 694 1 662 1 267 1
416 0 5 428 1 725 1 812 1 274 1 198 1
417 0 5 371 1 206 1 275 1 820 1 83 1
418 0 5 42 1 257 1 594 1 603 1 81 1
419 0 5 168 1 317 1 863 1 75 1 855 1
420 0 5 280 1 386 1 579 1 658 1 352 1
421 0 5 592 1 414 1 463 1 486 1 372 1
422 0 5 402 1 454 1 580 1 192 1 695 1
423 0 5 548 1 16 1 36 1 575 1 691 1
424 0 5 929 1 295 1 84 1 109 1 450 1
425 0 5 299 1 17 1 669 1 694 1 567 1
426 0 5 215 1 142 1 316 1 235 1 572 1
427 0 5 800 1 139 1 708 1 472 1 571 1
428 0 5 416 1 725 1 198 1 274 1 29 1
429 0 5 971 1 85 1 231 1 582 1 846 1
430 0 5 640 1 35 1 695 1 465 1 449 1
431 0 5 650 1 385 1 774 1 899 1 490 1
432 0 5 877 1 457 1 940 1 365 1 750 1
433 0 5 714 1 945 1 943 1 722 1 787 1
434 0 5 343 1 941 1 124 1 795 1 816 1
435 0 5 94 1 145 1 220 1 684 1 408 1
436 0 5 351 1 619 1 316 1 344 1 101 1
437 0 5 99 1 292 1 862 1 261 1 35 1
438 0 5 55 1 869 1 646 1 180 1 238 1
439 0 5 887 1 817 1 161 1 110 1 501 1
440 0 5 975 1 26 1 210 1 841 1 723 1
441 0 5 835 1 918 1 91 1 833 1 777 1
442 0 5 649 1 456 1 587 1 837 1 177 1
443 0 5 413 1 216 1 882 1 681 1 100 1
444 0 5 804 1 173 1 82 1 388 1 106 1
445 0 5 104 1 242 1 768 1 33 1 403 1
446 0 5 230 1 349 1 808 1 202 1 269 1
447 0 5 304 1 769 1 775 1 911 1 529 1
448 0 5 273 1 974 1 187 1 470 1 409 1
449 0 5 803 1 105 1 896 1 791 1 563 1
450 0 5 120 1 109 1 903 1 295 1 24 1
451 0 5 857 1 954 1 375 1 544 1 361 1
452 0 5 360 1 453 1 254 1 953 1 898 1
453 0 5 360 1 452 1 246 1 953 1 520 1
454 0 5 192 1 422 1 580 1 731 1 243 1
455 0 5 927 1 6 1 722 1 197 1 787 1
456 0 5 837 1 185 1 442 1 587 1 649 1
457 0 5 877 1 432 1 365 1 778 1 381 1
458 0 5 27 1 946 1 754 1 328 1 119 1
459 0 5 670 1 815 1 205 1 403 1 556 1
460 0 5 557 1 154 1 975 1 723 1 947 1
461 0 5 83 1 641 1 206 1 255 1 2 1
462 0 5 270 1 973 1 86 1 798 1 10 1
463 0 5 908 1 627 1 744 1 963 1 288 1
464 0 5 781 1 244 1 399 1 892 1 884 1
465 0 5 695 1 803 1 430 1 449 1 389 1
466 0 5 705 1 735 1 227 1 505 1 893 1
467 0 5 65 1 852 1 486 1 187 1 974 1
468 0 5 678 1 337 1 506 1 584 1 874 1
469 0 5 331 1 632 1 272 1 248 1 517 1
470 0 5 974 1 187 1 273 1 118 1 876 1
471 0 5 77 1 840 1 264 1 46 1 582 1
472 0 5 708 1 158 1 571 1 427 1 800 1
473 0 5 928 1 71 1 354 1 739 1 747 1
474 0 5 528 1 164 1 499 1 350 1 780 1
475 0 5 441 1 635 1 918 1 122 1 392 1
476 0 5 900 1 804 1 845 1 444 1 82 1
477 0 5 756 1 797 1 315 1 789 1 271 1
478 0 5 724 1 538 1 278 1 63 1 68 1
479 0 5 282 1 382 1 114 1 527 1 251 1
480 0 5 328 1 712 1 528 1 474 1 164 1
481 0 5 293 1 245 1 677 1 765 1 710 1
482 0 5 23 1 760 1 252 1 905 1 772 1
483 0 5 651 1 570 1 88 1 378 1 562 1
484 0 5 848 1 214 1 574 1 766 1 203 1
485 0 5 211 1 262 1 954 1 451 1 961 1
486 0 5 592 1 372 1 685 1 111 1 675 1
487 0 5 573 1 706 1 60 1 430 1 404 1
488 0 5 715 1 76 1 895 1 204 1 647 1
489 0 5 117 1 494 1 604 1 846 1 258 1
490 0 5 774 1 385 1 899 1 431 1 650 1
491 0 5 304 1 853 1 529 1 609 1 589 1
492 0 5 163 1 701 1 67 1 746 1 602 1
493 0 5 842 1 893 1 604 1 655 1 932 1
494 0 5 590 1 263 1 398 1 517 1 608 1
495 0 5 931 1 707 1 503 1 657 1 677 1
496 0 5 814 1 25 1 668 1 377 1 601 1
497 0 5 47 1 864 1 666 1 281 1 361 1
498 0 5 867 1 865 1 923 1 604 1 233 1
499 0 5 808 1 164 1 786 1 474 1 528 1
500 0 5 799 1 20 1 5 1 511 1 287 1
501 0 5 110 1 155 1 439 1 967 1 817 1
502 0 5 246 1 671 1 637 1 133 1 801 1
503 0 5 707 1 495 1 931 1 657 1 677 1
504 0 5 631 1 125 1 958 1 332 1 937 1
505 0 5 466 1 893 1 705 1 227 1 735 1
506 0 5 158 1 678 1 134 1 468 1 368 1
507 0 5 135 1 559 1 539 1 690 1 904 1
508 0 5 796 1 115 1 325 1 613 1 400 1
509 0 5 539 1 809 1 751 1 135 1 690 1
510 0 5 38 1 779 1 18 1 930 1 288 1
511 0 5 20 1 799 1 500 1 237 1 265 1
512 0 5 912 1 370 1 689 1 148 1 591 1
513 0 5 347 1 543 1 602 1 341 1 197 1
514 0 5 184 1 32 1 561 1 241 1 821 1
515 0 5 782 1 333 1 823 1 821 1 28 1
516 0 5 665 1 551 1 775 1 194 1 614 1
517 0 5 469 1 667 1 331 1 398 1 632 1
518 0 5 567 1 901 1 17 1 669 1 299 1
519 0 5 922 1 276 1 721 1 476 1 82 1
520 0 5 267 1 662 1 953 1 246 1 415 1
521 0 5 816 1 532 1 795 1 338 1 941 1
522 0 5 73 1 716 1 534 1 205 1 888 1
523 0 5 209 1 181 1 144 1 950 1 8 1
524 0 5 166 1 387 1 634 1 854 1 218 1
525 0 5 326 1 358 1 618 1 132 1 734 1
526 0 5 583 1 823 1 598 1 4 1 812 1
527 0 5 282 1 479 1 114 1 382 1 251 1
528 0 5 474 1 202 1 164 1 712 1 499 1
529 0 5 340 1 304 1 491 1 353 1 748 1
530 0 5 373 1 647 1 715 1 533 1 488 1
531 0 5 160 1 244 1 553 1 692 1 563 1
532 0 5 379 1 215 1 344 1 436 1 338 1
533 0 5 715 1 373 1 488 1 647 1 972 1
534 0 5 716 1 199 1 522 1 205 1 762 1
535 0 5 356 1 327 1 921 1 797 1 174 1
536 0 5 875 1 143 1 141 1 608 1 231 1
537 0 5 162 1 926 1 12 1 938 1 920 1
538 0 5 63 1 724 1 478 1 228 1 278 1
539 0 5 135 1 507 1 559 1 690 1 904 1
540 0 5 436 1 660 1 101 1 593 1 223 1
541 0 5 620 1 365 1 877 1 697 1 381 1
542 0 5 944 1 40 1 170 1 635 1 100 1
543 0 5 347 1 639 1 342 1 513 1 31 1
544 0 5 857 1 451 1 755 1 375 1 361 1
545 0 5 47 1 942 1 802 1 366 1 995 1
546 0 5 950 1 129 1 53 1 8 1 3 1
547 0 5 366 1 743 1 14 1 781 1 54 1
548 0 5 36 1 62 1 423 1 294 1 16 1
549 0 5 126 1 856 1 948 1 52 1 599 1
550 0 5 187 1 463 1 779 1 592 1 273 1
551 0 5 665 1 516 1 614 1 775 1 194 1
552 0 5 709 1 758 1 411 1 849 1 49 1
553 0 5 531 1 102 1 966 1 160 1 621 1
554 0 5 683 1 747 1 116 1 694 1 254 1
555 0 5 729 1 658 1 314 1 686 1 280 1
556 0 5 182 1 578 1 352 1 670 1 314 1
557 0 5 723 1 841 1 460 1 975 1 154 1
558 0 5 925 1 61 1 633 1 383 1 388 1
559 0 5 507 1 135 1 539 1 64 1 140 1
560 0 5 807 1 11 1 847 1 236 1 792 1
561 0 5 841 1 723 1 241 1 184 1 514 1
562 0 5 43 1 335 1 483 1 794 1 193 1
563 0 5 640 1 449 1 105 1 621 1 297 1
564 0 5 186 1 952 1 786 1 21 1 673 1
565 0 5 394 1 815 1 956 1 224 1 89 1
566 0 5 737 1 207 1 760 1 107 1 88 1
567 0 5 901 1 518 1 669 1 17 1 425 1
568 0 5 839 1 364 1 959 1 208 1 745 1
569 0 5 59 1 732 1 873 1 705 1 811 1
570 0 5 88 1 651 1 483 1 107 1 566 1
571 0 5 708 1 251 1 472 1 800 1 282 1
572 0 5 338 1 623 1 142 1 215 1 426 1
573 0 5 487 1 706 1 404 1 60 1 292 1
574 0 5 766 1 848 1 484 1 866 1 214 1
575 0 5 302 1 937 1 607 1 596 1 125 1
576 0 5 884 1 165 1 30 1 399 1 818 1
577 0 5 630 1 880 1 757 1 736 1 260 1
578 0 5 314 1 352 1 182 1 280 1 556 1
579 0 5 420 1 280 1 386 1 658 1 352 1
580 0 5 389 1 626 1 22 1 298 1 731 1
581 0 5 894 1 681 1 216 1 40 1 876 1
582 0 5 85 1 77 1 9 1 840 1 119 1
583 0 5 823 1 598 1 526 1 4 1 332 1
584 0 5 719 1 178 1 337 1 659 1 678 1
585 0 5 306 1 283 1 329 1 376 1 238 1
586 0 5 825 1 60 1 803 1 465 1 430 1
587 0 5 837 1 456 1 177 1 348 1 442 1
588 0 5 320 1 95 1 84 1 761 1 114 1
589 0 5 609 1 910 1 15 1 313 1 860 1
590 0 5 494 1 263 1 859 1 846 1 398 1
591 0 5 512 1 370 1 148 1 886 1 689 1
592 0 5 421 1 486 1 372 1 111 1 463 1
593 0 5 619 1 223 1 351 1 101 1 235 1
594 0 5 236 1 81 1 42 1 920 1 807 1
595 0 5 321 1 658 1 33 1 275 1 820 1
596 0 5 813 1 607 1 302 1 29 1 575 1
597 0 5 783 1 301 1 233 1 264 1 471 1
598 0 5 4 1 583 1 332 1 958 1 823 1
599 0 5 213 1 756 1 37 1 52 1 889 1
600 0 5 680 1 688 1 656 1 266 1 886 1
601 0 5 668 1 674 1 496 1 323 1 377 1
602 0 5 347 1 513 1 197 1 163 1 543 1
603 0 5 906 1 196 1 628 1 12 1 257 1
604 0 5 493 1 865 1 842 1 489 1 498 1
605 0 5 256 1 242 1 729 1 686 1 403 1
606 0 5 934 1 816 1 521 1 532 1 795 1
607 0 5 29 1 937 1 384 1 596 1 274 1
608 0 5 231 1 263 1 248 1 398 1 536 1
609 0 5 589 1 15 1 910 1 313 1 860 1
610 0 5 711 1 217 1 222 1 636 1 128 1
611 0 5 733 1 406 1 232 1 390 1 400 1
612 0 5 923 1 776 1 867 1 891 1 914 1
613 0 5 400 1 179 1 796 1 115 1 704 1
614 0 5 44 1 551 1 665 1 194 1 516 1
615 0 5 844 1 826 1 770 1 676 1 625 1
616 0 5 876 1 391 1 581 1 679 1 894 1
617 0 5 98 1 806 1 190 1 755 1 759 1
618 0 5 132 1 734 1 653 1 108 1 871 1
619 0 5 864 1 150 1 593 1 47 1 436 1
620 0 5 697 1 541 1 393 1 303 1 838 1
621 0 5 160 1 781 1 966 1 553 1 791 1
622 0 5 900 1 721 1 847 1 236 1 792 1
623 0 5 338 1 572 1 941 1 795 1 426 1
624 0 5 878 1 883 1 335 1 329 1 911 1
625 0 5 698 1 843 1 299 1 615 1 694 1
626 0 5 850 1 896 1 298 1 410 1 759 1
627 0 5 744 1 908 1 463 1 288 1 930 1
628 0 5 906 1 603 1 355 1 34 1 196 1
629 0 5 664 1 737 1 760 1 107 1 905 1
630 0 5 880 1 577 1 757 1 736 1 260 1
631 0 5 504 1 125 1 958 1 332 1 4 1
632 0 5 331 1 469 1 272 1 248 1 679 1
633 0 5 61 1 558 1 673 1 383 1 925 1
634 0 5 5 1 909 1 500 1 955 1 524 1
635 0 5 944 1 542 1 918 1 100 1 170 1
636 0 5 217 1 711 1 232 1 222 1 359 1
637 0 5 898 1 671 1 133 1 502 1 648 1
638 0 5 823 1 401 1 28 1 333 1 812 1
639 0 5 342 1 543 1 31 1 305 1 347 1
640 0 5 430 1 563 1 695 1 35 1 791 1
641 0 5 83 1 461 1 2 1 151 1 255 1
642 0 5 255 1 461 1 641 1 83 1 371 1
643 0 5 646 1 654 1 833 1 835 1 869 1
644 0 5 955 1 284 1 221 1 131 1 960 1
645 0 5 51 1 318 1 13 1 369 1 779 1
646 0 5 643 1 777 1 438 1 869 1 835 1
647 0 5 715 1 488 1 373 1 530 1 533 1
648 0 5 310 1 739 1 374 1 637 1 353 1
649 0 5 442 1 177 1 587 1 456 1 45 1
650 0 5 431 1 385 1 774 1 178 1 899 1
651 0 5 483 1 570 1 88 1 566 1 207 1
652 0 5 171 1 25 1 121 1 377 1 496 1
653 0 5 87 1 871 1 132 1 618 1 108 1
654 0 5 390 1 733 1 643 1 611 1 646 1
655 0 5 932 1 776 1 891 1 735 1 493 1
656 0 5 600 1 682 1 680 1 936 1 688 1
657 0 5 707 1 342 1 495 1 931 1 219 1
658 0 5 280 1 420 1 555 1 579 1 595 1
659 0 5 178 1 965 1 584 1 650 1 719 1
660 0 5 540 1 235 1 142 1 351 1 101 1
661 0 5 920 1 949 1 76 1 895 1 204 1
662 0 5 267 1 520 1 676 1 826 1 415 1
663 0 5 259 1 34 1 971 1 628 1 85 1
664 0 5 629 1 760 1 905 1 737 1 482 1
665 0 5 551 1 516 1 614 1 775 1 194 1
666 0 5 497 1 223 1 619 1 954 1 211 1
667 0 5 469 1 632 1 679 1 331 1 517 1
668 0 5 496 1 25 1 601 1 377 1 814 1
669 0 5 17 1 901 1 567 1 425 1 299 1
670 0 5 459 1 686 1 182 1 556 1 403 1
671 0 5 898 1 246 1 502 1 637 1 133 1
672 0 5 457 1 778 1 381 1 877 1 432 1
673 0 5 383 1 61 1 633 1 432 1 877 1
674 0 5 601 1 938 1 668 1 62 1 496 1
675 0 5 228 1 685 1 724 1 486 1 538 1
676 0 5 826 1 662 1 267 1 698 1 770 1
677 0 5 293 1 481 1 931 1 495 1 765 1
678 0 5 468 1 337 1 506 1 158 1 584 1
679 0 5 819 1 632 1 876 1 172 1 667 1
680 0 5 688 1 600 1 266 1 886 1 311 1
681 0 5 100 1 216 1 413 1 40 1 581 1
682 0 5 656 1 707 1 495 1 931 1 600 1
683 0 5 554 1 747 1 967 1 254 1 694 1
684 0 5 790 1 435 1 156 1 145 1 130 1
685 0 5 675 1 486 1 228 1 372 1 724 1
686 0 5 403 1 242 1 605 1 729 1 256 1
687 0 5 173 1 106 1 82 1 804 1 444 1
688 0 5 680 1 600 1 266 1 886 1 311 1
689 0 5 148 1 912 1 693 1 512 1 320 1
690 0 5 904 1 751 1 507 1 135 1 539 1
691 0 5 423 1 372 1 592 1 16 1 421 1
692 0 5 892 1 464 1 244 1 850 1 410 1
693 0 5 689 1 148 1 886 1 311 1 912 1
694 0 5 299 1 698 1 415 1 116 1 425 1
695 0 5 465 1 803 1 430 1 449 1 640 1
696 0 5 138 1 249 1 727 1 139 1 78 1
697 0 5 620 1 541 1 838 1 303 1 393 1
698 0 5 625 1 415 1 676 1 694 1 826 1
699 0 5 831 1 870 1 144 1 209 1 523 1
700 0 5 935 1 140 1 64 1 890 1 559 1
701 0 5 163 1 492 1 67 1 746 1 396 1
702 0 5 357 1 728 1 669 1 967 1 110 1
703 0 5 855 1 93 1 32 1 241 1 527 1
704 0 5 773 1 324 1 872 1 796 1 950 1
705 0 5 466 1 227 1 505 1 569 1 735 1
706 0 5 60 1 487 1 404 1 563 1 35 1
707 0 5 495 1 931 1 503 1 657 1 682 1
708 0 5 472 1 571 1 800 1 427 1 251 1
709 0 5 758 1 849 1 411 1 947 1 713 1
710 0 5 52 1 245 1 293 1 481 1 599 1
711 0 5 217 1 610 1 222 1 636 1 359 1
712 0 5 240 1 480 1 528 1 202 1 328 1
713 0 5 167 1 943 1 200 1 50 1 709 1
714 0 5 433 1 945 1 722 1 943 1 805 1
715 0 5 488 1 533 1 647 1 373 1 76 1
716 0 5 522 1 534 1 205 1 199 1 73 1
717 0 5 742 1 970 1 66 1 908 1 627 1
718 0 5 977 1 853 1 860 1 15 1 767 1
719 0 5 584 1 337 1 178 1 659 1 650 1
720 0 5 188 1 793 1 130 1 405 1 380 1
721 0 5 622 1 900 1 236 1 847 1 736 1
722 0 5 979 1 57 1 714 1 787 1 433 1
723 0 5 841 1 561 1 557 1 154 1 975 1
724 0 5 478 1 538 1 228 1 63 1 675 1
725 0 5 428 1 416 1 947 1 333 1 28 1
726 0 5 69 1 183 1 119 1 85 1 754 1
727 0 5 78 1 249 1 138 1 103 1 930 1
728 0 5 122 1 392 1 357 1 567 1 322 1
729 0 5 256 1 605 1 555 1 686 1 33 1
730 0 5 380 1 405 1 188 1 587 1 348 1
731 0 5 22 1 389 1 964 1 580 1 147 1
732 0 5 59 1 811 1 569 1 828 1 873 1
733 0 5 611 1 390 1 232 1 406 1 654 1
734 0 5 132 1 80 1 358 1 239 1 618 1
735 0 5 466 1 893 1 705 1 505 1 227 1
736 0 5 577 1 630 1 594 1 236 1 880 1
737 0 5 107 1 629 1 566 1 664 1 760 1
738 0 5 962 1 376 1 128 1 283 1 238 1
739 0 5 928 1 648 1 374 1 310 1 851 1
740 0 5 781 1 399 1 366 1 14 1 939 1
741 0 5 153 1 296 1 55 1 858 1 238 1
742 0 5 717 1 970 1 908 1 963 1 66 1
743 0 5 547 1 285 1 885 1 176 1 127 1
744 0 5 627 1 288 1 930 1 463 1 908 1
745 0 5 208 1 959 1 56 1 92 1 839 1
746 0 5 163 1 492 1 602 1 701 1 771 1
747 0 5 683 1 254 1 554 1 71 1 473 1
748 0 5 851 1 340 1 374 1 310 1 529 1
749 0 5 914 1 933 1 828 1 891 1 466 1
750 0 5 432 1 940 1 157 1 877 1 383 1
751 0 5 690 1 904 1 146 1 135 1 539 1
752 0 5 253 1 295 1 861 1 424 1 312 1
753 0 5 67 1 163 1 363 1 822 1 396 1
754 0 5 119 1 458 1 27 1 726 1 260 1
755 0 5 897 1 968 1 785 1 212 1 544 1
756 0 5 213 1 599 1 477 1 37 1 52 1
757 0 5 880 1 630 1 577 1 922 1 260 1
758 0 5 411 1 709 1 552 1 121 1 849 1
759 0 5 190 1 30 1 850 1 410 1 626 1
760 0 5 664 1 207 1 482 1 905 1 566 1
761 0 5 114 1 382 1 203 1 95 1 479 1
762 0 5 199 1 205 1 534 1 459 1 815 1
763 0 5 24 1 175 1 903 1 26 1 120 1
764 0 5 286 1 136 1 79 1 801 1 784 1
765 0 5 245 1 174 1 481 1 308 1 789 1
766 0 5 574 1 848 1 866 1 484 1 214 1
767 0 5 915 1 194 1 860 1 977 1 222 1
768 0 5 104 1 445 1 64 1 250 1 395 1
769 0 5 911 1 447 1 878 1 775 1 516 1
770 0 5 826 1 92 1 676 1 208 1 56 1
771 0 5 746 1 753 1 90 1 163 1 305 1
772 0 5 330 1 252 1 482 1 23 1 378 1
773 0 5 704 1 872 1 324 1 796 1 950 1
774 0 5 490 1 385 1 431 1 899 1 650 1
775 0 5 516 1 447 1 665 1 769 1 551 1
776 0 5 891 1 932 1 612 1 655 1 867 1
777 0 5 646 1 835 1 869 1 833 1 438 1
778 0 5 381 1 365 1 877 1 457 1 672 1
779 0 5 645 1 510 1 550 1 38 1 149 1
780 0 5 916 1 164 1 350 1 474 1 687 1
781 0 5 464 1 829 1 892 1 740 1 547 1
782 0 5 515 1 75 1 333 1 821 1 863 1
783 0 5 301 1 597 1 233 1 46 1 471 1
784 0 5 169 1 313 1 286 1 764 1 839 1
785 0 5 755 1 897 1 375 1 544 1 7 1
786 0 5 21 1 952 1 186 1 564 1 350 1
787 0 5 945 1 722 1 433 1 714 1 26 1
788 0 5 41 1 618 1 871 1 177 1 653 1
789 0 5 308 1 245 1 174 1 477 1 710 1
790 0 5 684 1 130 1 435 1 408 1 94 1
791 0 5 105 1 449 1 621 1 640 1 692 1
792 0 5 11 1 265 1 807 1 847 1 900 1
793 0 5 720 1 83 1 641 1 151 1 461 1
794 0 5 858 1 924 1 193 1 123 1 43 1
795 0 5 941 1 343 1 521 1 434 1 623 1
796 0 5 115 1 508 1 613 1 400 1 325 1
797 0 5 201 1 271 1 477 1 535 1 921 1
798 0 5 973 1 86 1 881 1 294 1 137 1
799 0 5 237 1 20 1 500 1 511 1 218 1
800 0 5 427 1 571 1 708 1 139 1 913 1
801 0 5 133 1 286 1 764 1 136 1 79 1
802 0 5 942 1 47 1 72 1 281 1 268 1
803 0 5 449 1 896 1 791 1 105 1 695 1
804 0 5 444 1 82 1 173 1 900 1 476 1
805 0 5 714 1 433 1 955 1 979 1 221 1
806 0 5 98 1 617 1 572 1 623 1 334 1
807 0 5 847 1 11 1 560 1 236 1 792 1
808 0 5 230 1 202 1 499 1 446 1 528 1
809 0 5 112 1 146 1 751 1 509 1 604 1
810 0 5 367 1 156 1 956 1 48 1 89 1
811 0 5 828 1 732 1 227 1 933 1 569 1
812 0 5 401 1 526 1 638 1 416 1 823 1
813 0 5 302 1 596 1 346 1 575 1 607 1
814 0 5 496 1 25 1 668 1 346 1 377 1
815 0 5 73 1 565 1 459 1 205 1 224 1
816 0 5 521 1 934 1 606 1 941 1 434 1
817 0 5 887 1 110 1 967 1 439 1 501 1
818 0 5 30 1 829 1 576 1 165 1 884 1
819 0 5 172 1 68 1 679 1 272 1 632 1
820 0 5 275 1 408 1 417 1 220 1 321 1
821 0 5 514 1 782 1 184 1 515 1 32 1
822 0 5 753 1 940 1 363 1 67 1 396 1
823 0 5 333 1 583 1 28 1 638 1 515 1
824 0 5 159 1 450 1 903 1 120 1 109 1
825 0 5 586 1 487 1 640 1 430 1 60 1
826 0 5 676 1 770 1 662 1 267 1 92 1
827 0 5 781 1 939 1 464 1 54 1 743 1
828 0 5 811 1 933 1 227 1 732 1 914 1
829 0 5 781 1 818 1 884 1 244 1 14 1
830 0 5 195 1 97 1 271 1 269 1 969 1
831 0 5 699 1 870 1 144 1 209 1 324 1
832 0 5 234 1 66 1 744 1 103 1 627 1
833 0 5 835 1 96 1 643 1 646 1 441 1
834 0 5 522 1 534 1 716 1 146 1 73 1
835 0 5 833 1 777 1 646 1 441 1 643 1
836 0 5 926 1 162 1 938 1 537 1 12 1
837 0 5 456 1 185 1 587 1 348 1 45 1
838 0 5 969 1 697 1 247 1 620 1 303 1
839 0 5 568 1 959 1 169 1 745 1 364 1
840 0 5 77 1 471 1 582 1 46 1 9 1
841 0 5 723 1 561 1 975 1 557 1 154 1
842 0 5 493 1 893 1 868 1 604 1 935 1
843 0 5 625 1 698 1 8 1 844 1 299 1
844 0 5 615 1 843 1 546 1 8 1 625 1
845 0 5 265 1 388 1 476 1 237 1 792 1
846 0 5 859 1 263 1 46 1 429 1 233 1
847 0 5 807 1 11 1 236 1 560 1 792 1
848 0 5 484 1 214 1 574 1 766 1 866 1
849 0 5 947 1 709 1 758 1 713 1 552 1
850 0 5 410 1 626 1 759 1 896 1 818 1
851 0 5 374 1 748 1 310 1 340 1 739 1
852 0 5 467 1 187 1 65 1 486 1 974 1
853 0 5 718 1 977 1 304 1 491 1 609 1
854 0 5 433 1 714 1 945 1 943 1 387 1
855 0 5 168 1 75 1 419 1 863 1 339 1
856 0 5 549 1 189 1 126 1 90 1 52 1
857 0 5 451 1 544 1 375 1 954 1 7 1
858 0 5 123 1 153 1 976 1 741 1 794 1
859 0 5 846 1 263 1 608 1 429 1 231 1
860 0 5 15 1 977 1 609 1 910 1 915 1
861 0 5 113 1 312 1 219 1 253 1 752 1
862 0 5 292 1 35 1 362 1 297 1 437 1
863 0 5 317 1 75 1 419 1 412 1 782 1
864 0 5 619 1 497 1 223 1 351 1 211 1
865 0 5 498 1 604 1 867 1 846 1 489 1
866 0 5 766 1 203 1 574 1 848 1 370 1
867 0 5 923 1 498 1 612 1 776 1 865 1
868 0 5 935 1 893 1 842 1 505 1 890 1
869 0 5 438 1 646 1 180 1 643 1 777 1
870 0 5 831 1 144 1 699 1 209 1 324 1
871 0 5 653 1 618 1 788 1 87 1 132 1
872 0 5 3 1 773 1 704 1 53 1 950 1
873 0 5 59 1 732 1 41 1 569 1 326 1
874 0 5 368 1 678 1 134 1 468 1 506 1
875 0 5 143 1 536 1 141 1 978 1 10 1
876 0 5 391 1 616 1 974 1 470 1 581 1
877 0 5 432 1 365 1 457 1 541 1 381 1
878 0 5 883 1 624 1 911 1 329 1 769 1
879 0 5 537 1 938 1 926 1 162 1 836 1
880 0 5 630 1 757 1 577 1 260 1 922 1
881 0 5 137 1 294 1 36 1 548 1 798 1
882 0 5 413 1 229 1 443 1 309 1 216 1
883 0 5 329 1 878 1 624 1 306 1 911 1
884 0 5 576 1 165 1 399 1 829 1 892 1
885 0 5 127 1 743 1 919 1 897 1 7 1
886 0 5 311 1 688 1 936 1 680 1 148 1
887 0 5 817 1 967 1 439 1 354 1 110 1
888 0 5 224 1 394 1 73 1 367 1 815 1
889 0 5 37 1 599 1 948 1 213 1 126 1
890 0 5 935 1 250 1 277 1 525 1 700 1
891 0 5 776 1 932 1 914 1 749 1 612 1
892 0 5 781 1 244 1 884 1 399 1 576 1
893 0 5 505 1 466 1 735 1 493 1 705 1
894 0 5 216 1 581 1 681 1 876 1 667 1
895 0 5 204 1 76 1 488 1 715 1 647 1
896 0 5 298 1 803 1 410 1 626 1 850 1
897 0 5 755 1 968 1 7 1 212 1 919 1
898 0 5 671 1 637 1 246 1 648 1 502 1
899 0 5 385 1 431 1 490 1 774 1 650 1
900 0 5 622 1 804 1 792 1 82 1 476 1
901 0 5 669 1 567 1 17 1 518 1 425 1
902 0 5 93 1 241 1 154 1 561 1 841 1
903 0 5 450 1 120 1 24 1 175 1 109 1
904 0 5 690 1 751 1 507 1 135 1 539 1
905 0 5 252 1 482 1 664 1 760 1 207 1
906 0 5 603 1 628 1 355 1 257 1 196 1
907 0 5 13 1 318 1 51 1 368 1 427 1
908 0 5 627 1 463 1 744 1 288 1 963 1
909 0 5 5 1 634 1 237 1 799 1 218 1
910 0 5 313 1 589 1 609 1 15 1 860 1
911 0 5 769 1 878 1 447 1 624 1 775 1
912 0 5 512 1 689 1 148 1 370 1 693 1
913 0 5 339 1 168 1 419 1 139 1 571 1
914 0 5 749 1 933 1 828 1 891 1 932 1
915 0 5 767 1 860 1 194 1 977 1 718 1
916 0 5 780 1 350 1 164 1 687 1 106 1
917 0 5 197 1 163 1 979 1 602 1 67 1
918 0 5 91 1 193 1 441 1 635 1 475 1
919 0 5 885 1 127 1 897 1 7 1 165 1
920 0 5 661 1 807 1 537 1 594 1 236 1
921 0 5 201 1 356 1 327 1 271 1 535 1
922 0 5 519 1 757 1 880 1 260 1 630 1
923 0 5 867 1 612 1 498 1 776 1 891 1
924 0 5 794 1 296 1 858 1 741 1 153 1
925 0 5 558 1 61 1 383 1 633 1 265 1
926 0 5 162 1 537 1 12 1 836 1 938 1
927 0 5 6 1 455 1 24 1 722 1 787 1
928 0 5 739 1 354 1 473 1 648 1 887 1
929 0 5 424 1 84 1 320 1 693 1 588 1
930 0 5 288 1 103 1 744 1 78 1 234 1
931 0 5 495 1 707 1 503 1 657 1 677 1
932 0 5 655 1 891 1 776 1 735 1 914 1
933 0 5 828 1 914 1 749 1 811 1 227 1
934 0 5 606 1 816 1 521 1 532 1 124 1
935 0 5 890 1 700 1 868 1 140 1 250 1
936 0 5 886 1 656 1 311 1 600 1 688 1
937 0 5 125 1 607 1 575 1 504 1 631 1
938 0 5 674 1 926 1 537 1 836 1 949 1
939 0 5 781 1 366 1 989 1 990 1 1004 1
940 0 5 432 1 822 1 67 1 877 1 753 1
941 0 5 343 1 434 1 795 1 623 1 124 1
942 0 5 802 1 366 1 545 1 666 1 961 1
943 0 5 945 1 433 1 714 1 713 1 50 1
944 0 5 635 1 378 1 542 1 170 1 483 1
945 0 5 433 1 714 1 943 1 787 1 722 1
946 0 5 27 1 458 1 328 1 9 1 754 1
947 0 5 849 1 709 1 713 1 557 1 725 1
948 0 5 126 1 549 1 37 1 889 1 599 1
949 0 5 661 1 76 1 307 1 938 1 895 1
950 0 5 546 1 324 1 704 1 129 1 773 1
951 0 5 285 1 262 1 127 1 743 1 547 1
952 0 5 21 1 186 1 786 1 564 1 350 1
953 0 5 415 1 520 1 360 1 116 1 698 1
954 0 5 451 1 375 1 361 1 666 1 485 1
955 0 5 644 1 805 1 221 1 979 1 634 1
956 0 5 367 1 48 1 810 1 565 1 394 1
957 0 5 513 1 197 1 6 1 341 1 927 1
958 0 5 332 1 970 1 66 1 598 1 4 1
959 0 5 208 1 568 1 745 1 56 1 364 1
960 0 5 221 1 979 1 57 1 805 1 722 1
961 0 5 211 1 497 1 485 1 262 1 954 1
962 0 5 738 1 128 1 376 1 390 1 610 1
963 0 5 463 1 627 1 908 1 744 1 717 1
964 0 5 298 1 334 1 389 1 896 1 22 1
965 0 5 107 1 659 1 629 1 737 1 178 1
966 0 5 939 1 261 1 102 1 297 1 563 1
967 0 5 110 1 817 1 887 1 683 1 702 1
968 0 5 897 1 755 1 7 1 212 1 919 1
969 0 5 247 1 269 1 838 1 830 1 349 1
970 0 5 66 1 332 1 958 1 234 1 627 1
971 0 5 85 1 429 1 259 1 69 1 582 1
972 0 5 121 1 50 1 336 1 49 1 373 1
973 0 5 798 1 86 1 462 1 270 1 881 1
974 0 5 470 1 187 1 273 1 118 1 876 1
975 0 5 440 1 841 1 723 1 557 1 460 1
976 0 5 123 1 858 1 335 1 153 1 238 1
977 0 5 718 1 853 1 15 1 860 1 609 1
978 0 5 875 1 143 1 141 1 536 1 34 1
979 0 5 722 1 57 1 714 1 433 1 805 1
980 0 5 1005 1 988 1 989 1 990 1 991 1
981 0 5 1005 1 988 1 989 1 990 1 991 1
982 0 5 1005 1 988 1 989 1 990 1 991 1
983 0 5 1005 1 988 1 989 1 990 1 991 1
984 0 5 1005 1 988 1 989 1 990 1 991 1
985 0 5 1005 1 988 1 989 1 990 1 991 1
986 0 5 1005 1 988 1 989 1 990 1 991 1
987 0 5 1005 1 988 1 989 1 990 1 991 1
988 0 5 1005 1 988 1 989 1 990 1 991 1
989 0 5 1005 1 988 1 989 1 990 1 991 1
990 0 5 1005 1 988 1 989 1 990 1 991 1
991 0 5 1005 1 988 1 989 1 990 1 991 1
992 0 5 1005 1 988 1 989 1 990 1 991 1
993 0 5 1005 1 988 1 989 1 990 1 991 1
994 0 5 1005 1 988 1 989 1 990 1 991 1
995 0 5 1005 1 988 1 989 1 990 1 991 1
996 0 5 1005 1 988 1 989 1 990 1 991 1
997 0 5 1005 1 988 1 989 1 990 1 991 1
998 0 5 1005 1 988 1 989 1 990 1 991 1
999 0 5 1005 1 988 1 989 1 990 1 991 1
1000 0 5 1005 1 988 1 989 1 990 1 991 1
1001 0 5 1005 1 988 1 989 1 990 1 991 1
1002 0 5 1005 1 988 1 989 1 990 1 991 1
1003 0 5 1005 1 988 1 989 1 990 1 991 1
1004 0 5 1005 1 988 1 989 1 990 1 991 1
1005 0 5 1005 1 988 1 989 1 990 1 991 1
1006 0 5 1005 1 988 1 989 1 990 1 991 1
1007 0 5 1005 1 988 1 989 1 990 1 991 1
1008 0 5 1005 1 988 1 989 1 990 1 991 1
1009 0 5 1005 1 988 1 989 1 990 1 991 1
1010 0 5 1005 1 988 1 989 1 990 1 991 1
1011 0 5 1005 1 988 1 989 1 990 1 991 1
1012 0 5 1005 1 988 1 989 1 990 1 991 1
1013 0 5 1005 1 988 1 989 1 990 1 991 1
1014 0 5 1005 1 988 1 989 1 990 1 991 1
1015 0 5 1005 1 988 1 989 1 990 1 991 1
1016 0 5 1005 1 988 1 989 1 990 1 991 1
1017 0 5 1005 1 988 1 989 1 990 1 991 1
1018 0 5 1005 1 988 1 989 1 990 1 991 1
1019 0 5 1005 1 988 1 989 1 990 1 991 1
1020 0 5 1005 1 988 1 989 1 990 1 991 1
1021 0 5 1005 1 988 1 989 1 990 1 991 1
1022 0 5 1005 1 988 1 989 1 990 1 991 1
1023 0 5 1005 1 988 1 989 1 990 1 991 1
1024 0 5 1005 1 988 1 989 1 990 1 991 1
1025 0 5 1005 1 988 1 989 1 990 1 991 1
1026 0 5 1005 1 988 1 989 1 990 1 991 1
1027 0 5 1005 1 988 1 989 1 990 1 991 1
1028 0 5 1005 1 988 1 989 1 990 1 991 1
1029 0 5 1005 1 988 1 989 1 990 1 991 1
1030 0 5 1005 1 988 1 989 1 990 1 991 1
1031 0 5 1005 1 988 1 989 1 990 1 991 1
1032 0 5 1005 1 988 1 989 1 990 1 991 1
1033 0 5 1005 1 988 1 989 1 990 1 991 1
1034 0 5 1005 1 988 1 989 1 990 1 991 1
1035 0 5 1005 1 988 1 989 1 990 1 991 1
1036 0 5 1005 1 988 1 989 1 990 1 991 1
-1
EOF
